11 114 105 103 182 81 163 113 24 19 141 9 8 101 115 2 82 39 5 17 84 58 149 63 142 188 95 85 159 173 64 186 13 67 32 165 44 98 77 30 56 71 134 160 75 79 193 156 133 126 108 124 145 45 120 189 100 194 73 111 60 170 6 197 131 66 74 158 175 35 128 107 198 196 190 28 127 57 102 110 192 21 184 172 41 22 109 167 10 88 89 16 139 138 69 152 48 169 97 166 96 104 31 93 161 125 199 155 0 49 168 148 185 37 65 7 51 137 119 179 80 33 129 174 26 23 164 87 178 12 180 78 146 40 83 136 171 14 68 106 183 157 151 15 153 62 76 42 53 90 38 72 187 70 121 122 92 3 154 43 59 52 123 176 4 117 61 34 118 50 36 195 18 191 1 99 29 143 47 140 135 144 116 91 177 54 112 86 25 162 130 147 94 150 55 20 181 132 46 27